(set-logic QF_S)
(declare-fun var_0xINPUT_128180 () String)
(assert (and (= (len var_0xINPUT_128180) 0) (= (len var_0xINPUT_128180) 0) (not (= var_0xINPUT_128180 "Example:")) (not (= var_0xINPUT_128180 "3s71lxYG6e"))))
(check-sat var_0xINPUT_128180)